
  17    4
  10   10   10   10

   0   0   0   0   0   6 2 3 4 5 6 10 
  10  10  10  10  10   4 16 13 9 8 
   6  10  10  10  10   3 9 8 7 
   5  10  10  10  10   3 12 9 7 
   6  10  10  10  10   3 16 13 9 
   6  10  10  10  10   2 12 7 
   4  10  10  10  10   3 16 15 11 
   8  10  10  10  10   3 15 12 11 
   3  10  10  10  10   2 15 11 
   6  10  10  10  10   2 16 11 
   2  10  10  10  10   1 14 
   1  10  10  10  10   1 14 
   3  10  10  10  10   1 15 
  10  10  10  10  10   1 17
   9  10  10  10  10   1 17
   4  10  10  10  10   1 17
   0   0   0   0   0   0 
